 vasp.5.4.4.18Apr17-6-g9f103f2a35 (build Nov 27 2019 20:08:17) complex

 executed on             LinuxIFC date 2020.04.19  09:27:25

 INCAR:
 POTCAR:    PAW_PBE Ti 08Apr2002
 POTCAR:    PAW_PBE Al 04Jan2001

 POTCAR:    PAW_PBE Ti 08Apr2002
   VRHFIN =Ti: d3 s1

   TITEL  = PAW_PBE Ti 08Apr2002
   POMASS =   47.880; ZVAL   =    4.000    mass and valenz
   ENMAX  =  178.330; ENMIN  =  133.747 eV

 POTCAR:    PAW_PBE Al 04Jan2001
   VRHFIN =Al: s2p1

   TITEL  = PAW_PBE Al 04Jan2001
   POMASS =   26.981; ZVAL   =    3.000    mass and valenz
   ENMAX  =  240.300; ENMIN  =  180.225 eV

 Optimization of the real space projectors (new method)

 maximal supplied QI-value         = 13.42
 optimisation between [QCUT,QGAM] = [  9.93, 19.86] = [ 27.60,110.42] Ry
 Optimized for a Real-space Cutoff    1.59 Angstroem

   l    n(q)    QCUT    max X(q) W(low)/X(q) W(high)/X(q)  e(spline)
   2      9     9.929    49.363    0.27E-03    0.79E-03    0.35E-06
   2      9     9.929    47.669    0.26E-03    0.77E-03    0.34E-06
   0      9     9.929    26.374    0.19E-03    0.47E-04    0.12E-06
   0      9     9.929    11.549    0.15E-03    0.39E-04    0.96E-07
   1      9     9.929     9.492    0.16E-04    0.78E-04    0.41E-07
 Optimization of the real space projectors (new method)

 maximal supplied QI-value         = 19.84
 optimisation between [QCUT,QGAM] = [  9.92, 19.84] = [ 27.56,110.25] Ry
 Optimized for a Real-space Cutoff    1.26 Angstroem

   l    n(q)    QCUT    max X(q) W(low)/X(q) W(high)/X(q)  e(spline)
   0      7     9.921   176.870    0.16E-03    0.24E-03    0.48E-07
   0      7     9.921   105.762    0.16E-03    0.23E-03    0.47E-07
   1      7     9.921    55.370    0.28E-03    0.18E-03    0.14E-06
   1      7     9.921    20.208    0.26E-03    0.17E-03    0.13E-06
  PAW_PBE Ti 08Apr2002                  :
  PAW_PBE Al 04Jan2001                  :

 POSCAR: Optimistic_Structure
  positions in direct lattice
 exchange correlation table for  LEXCH =       14
   RHO(1)=    0.500       N(1)  =     2000
   RHO(2)=  100.500       N(2)  =     4000

 VTST: version 3.2, (02/03/18)

 CHAIN: initializing optimizer

 OPT: Using VASP Conjugate-Gradient optimizer
 CHAIN: Read ICHAIN            0

 POSCAR: Optimistic_Structure
  positions in direct lattice

 ion  position               nearest neighbor table
   1  0.625  0.042  0.500-  18 2.69  19 2.69  30 2.69  31 2.69  40 2.82  57 2.97  58 2.97   3 3.00
                             7 3.15  13 3.15
   2  0.125  0.042  0.659-  18 2.69  19 2.69  30 2.69  31 2.69  20 2.69  21 2.69  32 2.69  33 2.69
                             4 3.00   8 3.15   3 3.15   3 3.15  14 3.15
   3  0.625  0.042  0.659-  18 2.69  19 2.69  30 2.69  31 2.69  20 2.69  21 2.69  32 2.69  33 2.69
                             1 3.00   5 3.00   9 3.15   2 3.15   2 3.15  15 3.15
   4  0.125  0.042  0.817-  20 2.69  21 2.69  22 2.69  23 2.69  32 2.69  33 2.69  34 2.69  35 2.69
                             2 3.00  10 3.15   5 3.15   5 3.15  16 3.15
   5  0.625  0.042  0.817-  20 2.69  21 2.69  22 2.69  23 2.69  32 2.69  33 2.69  34 2.69  35 2.69
                             3 3.00  11 3.15   4 3.15   4 3.15  17 3.15
   6  0.125  0.375  0.500-  55 2.52  56 2.52  24 2.69  25 2.69  18 2.69  19 2.69   8 3.00  12 3.15
                             7 3.15   7 3.15
   7  0.625  0.375  0.500-  55 2.52  56 2.52  24 2.69  25 2.69  18 2.69  19 2.69   9 3.00   1 3.15
                            13 3.15   6 3.15   6 3.15
   8  0.125  0.375  0.659-  18 2.69  19 2.69  24 2.69  25 2.69  20 2.69  21 2.69  26 2.69  27 2.69
                             6 3.00  10 3.00   2 3.15  14 3.15   9 3.15   9 3.15
   9  0.625  0.375  0.659-  18 2.69  19 2.69  24 2.69  25 2.69  20 2.69  21 2.69  26 2.69  27 2.69
                             7 3.00  11 3.00   3 3.15  15 3.15   8 3.15   8 3.15
  10  0.125  0.375  0.817-  20 2.69  21 2.69  26 2.69  27 2.69  22 2.69  23 2.69  28 2.69  29 2.69
                             8 3.00   4 3.15  16 3.15  11 3.15  11 3.15
  11  0.625  0.375  0.817-  20 2.69  21 2.69  26 2.69  27 2.69  22 2.69  23 2.69  28 2.69  29 2.69
                             9 3.00   5 3.15  17 3.15  10 3.15  10 3.15
  12  0.125  0.708  0.500-  24 2.69  25 2.69  30 2.69  31 2.69  36 2.82  57 2.97  58 2.97  14 3.00
                             6 3.15  13 3.15  13 3.15
  13  0.625  0.708  0.500-  24 2.69  25 2.69  30 2.69  31 2.69  37 2.82  57 2.97  58 2.97  15 3.00
                             7 3.15  12 3.15  12 3.15   1 3.15
  14  0.125  0.708  0.659-  24 2.69  25 2.69  30 2.69  31 2.69  26 2.69  27 2.69  32 2.69  33 2.69
                            12 3.00  16 3.00   8 3.15  15 3.15  15 3.15   2 3.15
  15  0.625  0.708  0.659-  24 2.69  25 2.69  30 2.69  31 2.69  26 2.69  27 2.69  32 2.69  33 2.69
                            13 3.00  17 3.00   9 3.15  14 3.15  14 3.15   3 3.15
  16  0.125  0.708  0.817-  26 2.69  27 2.69  28 2.69  29 2.69  32 2.69  33 2.69  34 2.69  35 2.69
                            14 3.00  10 3.15  17 3.15  17 3.15   4 3.15
  17  0.625  0.708  0.817-  26 2.69  27 2.69  28 2.69  29 2.69  32 2.69  33 2.69  34 2.69  35 2.69
                            15 3.00  11 3.15  16 3.15  16 3.15   5 3.15
  18  0.375  0.208  0.579-   1 2.69   2 2.69   3 2.69   6 2.69   7 2.69   8 2.69   9 2.69  20 3.00
                            30 3.15  19 3.15  19 3.15  24 3.15
  19  0.875  0.208  0.579-   1 2.69   2 2.69   3 2.69   6 2.69   7 2.69   8 2.69   9 2.69  21 3.00
                            31 3.15  18 3.15  18 3.15  25 3.15
  20  0.375  0.208  0.738-   4 2.69   5 2.69  10 2.69  11 2.69   2 2.69   3 2.69   8 2.69   9 2.69
                            22 3.00  18 3.00  32 3.15  21 3.15  21 3.15  26 3.15
  21  0.875  0.208  0.738-   4 2.69   5 2.69  10 2.69  11 2.69   2 2.69   3 2.69   8 2.69   9 2.69
                            23 3.00  19 3.00  33 3.15  20 3.15  20 3.15  27 3.15
  22  0.375  0.208  0.896-  65 2.11   5 2.69   4 2.69  11 2.69  10 2.69  20 3.00  34 3.15  23 3.15
                            23 3.15  28 3.15
  23  0.875  0.208  0.896-  66 2.11   5 2.69   4 2.69  11 2.69  10 2.69  21 3.00  35 3.15  22 3.15
                            22 3.15  29 3.15
  24  0.375  0.542  0.579-  12 2.69  13 2.69  14 2.69  15 2.69   6 2.69   7 2.69   8 2.69   9 2.69
                            26 3.00  30 3.15  25 3.15  25 3.15  18 3.15
  25  0.875  0.542  0.579-  12 2.69  13 2.69  14 2.69  15 2.69   6 2.69   7 2.69   8 2.69   9 2.69
                            27 3.00  31 3.15  24 3.15  24 3.15  19 3.15
  26  0.375  0.542  0.738-  16 2.69  17 2.69  10 2.69  11 2.69  14 2.69  15 2.69   8 2.69   9 2.69
                            28 3.00  24 3.00  32 3.15  27 3.15  27 3.15  20 3.15
  27  0.875  0.542  0.738-  16 2.69  17 2.69  10 2.69  11 2.69  14 2.69  15 2.69   8 2.69   9 2.69
                            29 3.00  25 3.00  33 3.15  26 3.15  26 3.15  21 3.15
  28  0.375  0.542  0.896-  61 2.11  17 2.69  16 2.69  11 2.69  10 2.69  26 3.00  34 3.15  29 3.15
                            29 3.15  22 3.15
  29  0.875  0.542  0.896-  62 2.11  17 2.69  16 2.69  11 2.69  10 2.69  27 3.00  35 3.15  28 3.15
                            28 3.15  23 3.15
  30  0.375  0.875  0.579-   1 2.69   2 2.69   3 2.69  12 2.69  13 2.69  14 2.69  15 2.69  32 3.00
                            24 3.15  18 3.15  31 3.15  31 3.15
  31  0.875  0.875  0.579-   1 2.69   2 2.69   3 2.69  12 2.69  13 2.69  14 2.69  15 2.69  33 3.00
                            25 3.15  19 3.15  30 3.15  30 3.15
  32  0.375  0.875  0.738-   4 2.69   5 2.69  16 2.69  17 2.69  14 2.69  15 2.69   2 2.69   3 2.69
                            34 3.00  30 3.00  20 3.15  26 3.15  33 3.15  33 3.15
  33  0.875  0.875  0.738-   4 2.69   5 2.69  16 2.69  17 2.69  14 2.69  15 2.69   2 2.69   3 2.69
                            35 3.00  31 3.00  21 3.15  27 3.15  32 3.15  32 3.15
  34  0.375  0.875  0.896-   4 2.69   5 2.69  16 2.69  17 2.69  32 3.00  61 3.07  65 3.07  45 3.13
                            46 3.13  28 3.15  22 3.15  35 3.15  35 3.15
  35  0.875  0.875  0.896-   4 2.69   5 2.69  16 2.69  17 2.69  33 3.00  62 3.07  66 3.07  45 3.13
                            46 3.13  29 3.15  23 3.15  34 3.15  34 3.15
  36  0.125  0.625  0.357-  59 2.75  60 2.75  47 2.80  49 2.80  12 2.82  57 2.94  58 2.94  55 2.94
                            56 2.94  37 3.15  37 3.15
  37  0.625  0.625  0.357-  59 2.75  60 2.75  48 2.80  50 2.80  13 2.82  57 2.94  58 2.94  55 2.94
                            56 2.94  36 3.15  36 3.15
  38  0.125  0.625  0.119-  59 2.75  60 2.75  61 2.75  62 2.75  43 2.80  45 2.80  53 2.94  52 2.94
                            51 2.94  54 2.94  39 3.15  39 3.15
  39  0.625  0.625  0.119-  59 2.75  60 2.75  61 2.75  62 2.75  44 2.80  46 2.80  54 2.94  52 2.94
                            51 2.94  53 2.94  38 3.15  38 3.15
  40  0.625  0.125  0.357-  63 2.75  64 2.75  48 2.80  50 2.80   1 2.82  57 2.94  58 2.94  55 2.94
                            56 2.94  67 3.15  67 3.15
  41  0.125  0.125  0.119-  65 2.75  66 2.75  63 2.75  64 2.75  43 2.80  45 2.80  53 2.94  52 2.94
                            51 2.94  54 2.94  42 3.15  42 3.15
  42  0.625  0.125  0.119-  65 2.75  66 2.75  63 2.75  64 2.75  44 2.80  46 2.80  54 2.94  52 2.94
                            51 2.94  53 2.94  41 3.15  41 3.15
  43  0.125  0.375  0.040-  53 2.75  54 2.75  38 2.80  41 2.80  61 2.94  62 2.94  65 2.94  66 2.94
                            44 3.15  44 3.15
  44  0.625  0.375  0.040-  54 2.75  53 2.75  39 2.80  42 2.80  61 2.94  62 2.94  65 2.94  66 2.94
                            43 3.15  43 3.15
  45  0.125  0.875  0.040-  51 2.75  52 2.75  38 2.80  41 2.80  61 2.94  62 2.94  65 2.94  66 2.94
                            34 3.13  35 3.13  46 3.15  46 3.15
  46  0.625  0.875  0.040-  51 2.75  52 2.75  39 2.80  42 2.80  61 2.94  62 2.94  65 2.94  66 2.94
                            34 3.13  35 3.13  45 3.15  45 3.15
  47  0.125  0.375  0.278-  55 2.75  56 2.75  53 2.75  54 2.75  36 2.80  67 2.80  64 2.94  63 2.94
                            60 2.94  59 2.94  48 3.15  48 3.15
  48  0.625  0.375  0.278-  55 2.75  56 2.75  54 2.75  53 2.75  37 2.80  40 2.80  63 2.94  64 2.94
                            59 2.94  60 2.94  47 3.15  47 3.15
  49  0.125  0.875  0.278-  57 2.75  58 2.75  51 2.75  52 2.75  36 2.80  67 2.80  64 2.94  63 2.94
                            60 2.94  59 2.94  50 3.15  50 3.15
  50  0.625  0.875  0.278-  57 2.75  58 2.75  51 2.75  52 2.75  37 2.80  40 2.80  63 2.94  64 2.94
                            59 2.94  60 2.94  49 3.15  49 3.15
  51  0.375  0.875  0.159-  45 2.75  46 2.75  49 2.75  50 2.75  59 2.80  63 2.80  41 2.94  42 2.94
                            38 2.94  39 2.94  52 3.15  52 3.15
  52  0.875  0.875  0.159-  45 2.75  46 2.75  49 2.75  50 2.75  60 2.80  64 2.80  41 2.94  42 2.94
                            38 2.94  39 2.94  51 3.15  51 3.15
  53  0.375  0.375  0.159-  43 2.75  44 2.75  47 2.75  48 2.75  59 2.80  63 2.80  38 2.94  41 2.94
                            39 2.94  42 2.94  54 3.15  54 3.15
  54  0.875  0.375  0.159-  44 2.75  43 2.75  48 2.75  47 2.75  60 2.80  64 2.80  39 2.94  42 2.94
                            41 2.94  38 2.94  53 3.15  53 3.15
[...]
  Hartree   360.72194   324.12447  -131.03559    -0.00000    -5.41518     0.00002
  E(xc)   -1041.56141 -1042.77051 -1057.83844     0.00000     0.39769    -0.00001
  Local      -7.53573    57.31874   924.61261     0.00000    15.95167    -0.00013
  n-local  -195.51883  -186.30247  -233.01622    -1.25397    -1.53009    -0.34200
  augment   386.70927   383.04309   386.28360    -0.00000    -0.14477    -0.00000
  Kinetic  1750.62255  1739.66248  1747.23884     2.65653    -2.65878     0.38500
  Fock        0.00000     0.00000     0.00000     0.00000     0.00000     0.00000
  Total      -6.78887     2.34038    27.31088     0.00000    -3.39417     0.00000
  in kB      -9.62739     3.31892    38.72992     0.00000    -4.81332     0.00000

 VOLUME and BASIS-vectors are now :
  energy-cutoff  :      380.00
  volume of cell :     1129.79
      direct lattice vectors                 reciprocal lattice vectors
     6.309760000  0.000000000  0.000000000     0.158484633  0.000000000  0.000000000
     0.000000000  9.464640000  0.000000000     0.000000000  0.105656422  0.000000000
     0.000000000  0.000000000 18.918326000     0.000000000  0.000000000  0.052858799

  length of vectors
     6.309760000  9.464640000 18.918326000     0.158484633  0.105656422  0.052858799

 FORCES acting on ions
    electron-ion (+dipol)            ewald-force                    non-local-force                 convergence-correction
   0.167E-09 -.665E+01 0.653E+02   -.148E-08 0.595E+01 -.651E+02   0.626E-18 0.553E+00 -.120E+01   0.638E-14 -.516E-03 -.100E-02
   -.164E-09 -.694E-01 0.486E+02   -.932E-11 0.162E+00 -.473E+02   0.111E-17 -.511E-01 -.815E+00   0.324E-14 -.907E-03 0.367E-03
   -.196E-09 -.115E+00 0.352E+02   -.932E-11 0.169E+00 -.354E+02   0.376E-18 0.917E-01 -.368E+00   0.749E-14 -.885E-03 0.311E-03
   0.477E-09 0.906E+00 -.361E+02   -.148E-08 -.107E+01 0.354E+02   -.271E-17 -.821E-02 0.791E+00   0.168E-13 -.526E-03 0.234E-02
   0.945E-10 0.923E+00 -.365E+02   -.148E-08 -.107E+01 0.358E+02   -.610E-19 0.166E-01 0.898E+00   0.334E-14 -.502E-03 0.237E-02
   0.190E-08 0.210E+02 0.572E+02   -.655E-08 -.198E+02 -.552E+02   -.221E-19 -.111E+01 -.203E+01   0.510E-13 -.185E-03 -.151E-02
   0.163E-08 0.100E+02 0.567E+02   -.655E-08 -.103E+02 -.549E+02   -.610E-18 0.202E+00 -.154E+01   -.101E-13 -.323E-03 -.159E-02
   0.189E-09 0.573E+01 0.300E+02   -.213E-10 -.592E+01 -.301E+02   0.129E-17 -.179E+00 -.225E+00   -.150E-13 -.227E-03 0.679E-03
   0.146E-09 0.405E+01 0.282E+02   -.213E-10 -.425E+01 -.284E+02   -.136E-18 0.104E+00 0.103E+00   -.129E-13 -.228E-03 0.652E-03
   0.219E-08 0.840E+00 -.392E+02   -.655E-08 -.843E+00 0.387E+02   -.106E-18 0.200E-01 0.509E+00   0.703E-13 -.441E-04 0.273E-02
   0.147E-08 0.726E+00 -.394E+02   -.655E-08 -.779E+00 0.388E+02   0.585E-18 -.799E-01 0.457E+00   -.246E-13 -.654E-04 0.273E-02
   0.324E-09 -.143E+02 0.641E+02   -.148E-08 0.141E+02 -.638E+02   0.495E-19 -.315E+00 -.141E+01   0.302E-13 0.805E-03 -.110E-02
   0.196E-09 -.329E+01 0.640E+02   -.148E-08 0.436E+01 -.636E+02   -.118E-17 -.944E+00 -.165E+01   -.110E-13 0.826E-03 -.107E-02
   -.166E-09 -.563E+01 0.302E+02   -.932E-11 0.576E+01 -.304E+02   -.983E-19 0.133E+00 -.221E+00   0.401E-14 0.113E-02 0.524E-03
   -.193E-09 -.402E+01 0.285E+02   -.932E-11 0.408E+01 -.286E+02   -.175E-17 -.523E-01 -.120E+00   0.793E-14 0.111E-02 0.533E-03
   0.449E-09 -.178E+01 -.376E+02   -.148E-08 0.192E+01 0.369E+02   -.805E-18 -.443E-02 0.909E+00   0.403E-13 0.569E-03 0.245E-02
   0.120E-09 -.166E+01 -.378E+02   -.148E-08 0.185E+01 0.371E+02   0.669E-18 0.283E-01 0.906E+00   -.197E-13 0.563E-03 0.247E-02
   0.137E+02 0.202E+02 0.724E+02   -.132E+02 -.198E+02 -.712E+02   -.592E+00 -.428E+00 -.156E+01   0.498E-04 -.106E-02 -.623E-03
   -.137E+02 0.202E+02 0.724E+02   0.132E+02 -.198E+02 -.712E+02   0.592E+00 -.428E+00 -.156E+01   -.498E-04 -.106E-02 -.623E-03
   0.713E+00 0.213E+01 0.106E+00   -.715E+00 -.212E+01 -.219E+00   -.104E+00 0.108E+00 0.234E+00   -.137E-04 -.822E-03 0.167E-02
   -.713E+00 0.213E+01 0.106E+00   0.715E+00 -.212E+01 -.219E+00   0.104E+00 0.108E+00 0.234E+00   0.137E-04 -.822E-03 0.167E-02
   0.683E-01 -.884E+01 -.477E+02   -.378E-01 0.114E+02 0.415E+02   -.216E-01 -.112E+01 0.626E+01   0.203E-05 -.418E-03 0.287E-02
   -.683E-01 -.884E+01 -.477E+02   0.378E-01 0.114E+02 0.415E+02   0.216E-01 -.112E+01 0.626E+01   -.203E-05 -.418E-03 0.287E-02
   0.116E+01 -.973E+00 0.570E+02   -.116E+01 0.105E+01 -.562E+02   -.471E-01 -.240E+00 -.882E+00   -.300E-04 0.710E-03 -.517E-03
   -.116E+01 -.973E+00 0.570E+02   0.116E+01 0.105E+01 -.562E+02   0.471E-01 -.240E+00 -.882E+00   0.300E-04 0.710E-03 -.517E-03
   0.203E+00 0.221E+00 -.335E+01   -.212E+00 -.152E+00 0.330E+01   0.708E-01 -.135E+00 0.307E+00   -.279E-04 0.695E-03 0.183E-02
   -.203E+00 0.221E+00 -.335E+01   0.212E+00 -.152E+00 0.330E+01   -.708E-01 -.135E+00 0.307E+00   0.279E-04 0.695E-03 0.183E-02
   0.161E-01 0.922E+01 -.481E+02   -.208E-01 -.117E+02 0.419E+02   0.138E-01 0.115E+01 0.623E+01   -.233E-04 0.413E-03 0.293E-02
   -.161E-01 0.922E+01 -.481E+02   0.208E-01 -.117E+02 0.419E+02   -.138E-01 0.115E+01 0.623E+01   0.233E-04 0.413E-03 0.293E-02
   0.136E+02 -.193E+02 0.691E+02   -.132E+02 0.188E+02 -.689E+02   -.485E+00 0.623E+00 -.642E+00   -.120E-04 0.354E-03 -.301E-03
   -.136E+02 -.193E+02 0.691E+02   0.132E+02 0.188E+02 -.689E+02   0.485E+00 0.623E+00 -.642E+00   0.120E-04 0.354E-03 -.301E-03
   0.749E+00 -.230E+01 0.225E+00   -.716E+00 0.227E+01 0.105E+00   -.124E+00 0.946E-02 -.226E+00   -.531E-04 0.133E-03 0.139E-02
   -.749E+00 -.230E+01 0.225E+00   0.716E+00 0.227E+01 0.105E+00   0.124E+00 0.946E-02 -.226E+00   0.531E-04 0.133E-03 0.139E-02
   0.404E-01 -.371E+00 -.593E+02   -.369E-01 0.374E+00 0.595E+02   -.958E-02 -.120E-01 0.122E+01   -.261E-04 0.476E-05 0.256E-02
   -.404E-01 -.371E+00 -.593E+02   0.369E-01 0.374E+00 0.595E+02   0.958E-02 -.120E-01 0.122E+01   0.261E-04 0.476E-05 0.256E-02
   0.122E-06 -.197E+01 -.848E+01   -.445E-06 0.231E+01 0.819E+01   0.160E-19 -.179E+00 0.101E+01   0.164E-11 0.422E-04 -.265E-02
   0.121E-06 -.911E+00 -.763E+01   -.445E-06 0.127E+01 0.731E+01   -.788E-18 -.171E+00 0.116E+01   0.955E-12 -.692E-05 -.268E-02
   0.783E-05 -.422E+00 -.138E+02   -.281E-04 0.306E+00 0.137E+02   -.133E-18 0.121E+00 0.347E+00   0.733E-10 0.413E-04 -.369E-03
   0.781E-05 -.397E+00 -.136E+02   -.281E-04 0.293E+00 0.135E+02   -.153E-18 0.116E+00 0.338E+00   0.720E-10 0.983E-05 -.377E-03
   0.120E-06 0.219E+01 -.134E+02   -.445E-06 -.236E+01 0.130E+02   -.342E-17 0.953E-01 0.918E+00   0.973E-12 -.112E-03 -.241E-02
   0.785E-05 0.435E+00 -.166E+02   -.281E-04 -.320E+00 0.166E+02   0.896E-19 -.150E+00 0.243E+00   0.735E-10 -.305E-04 -.340E-03
   0.779E-05 0.401E+00 -.156E+02   -.281E-04 -.302E+00 0.156E+02   0.116E-18 -.106E+00 0.307E+00   0.695E-10 -.732E-05 -.330E-03
   0.133E-04 0.529E+00 -.402E+01   -.463E-04 -.538E+00 0.330E+01   0.278E-18 0.176E-01 -.120E+01   0.112E-09 -.538E-05 0.136E-02
   0.132E-04 0.488E+00 -.392E+01   -.463E-04 -.497E+00 0.319E+01   -.646E-18 -.909E-03 -.124E+01   0.108E-09 -.109E-04 0.136E-02
   0.477E-07 -.543E+00 -.556E+01   -.165E-06 0.540E+00 0.537E+01   0.132E-18 0.377E-02 -.536E+00   0.827E-12 -.344E-05 0.111E-02
   0.434E-07 -.511E+00 -.543E+01   -.165E-06 0.498E+00 0.525E+01   -.425E-19 -.119E-01 -.586E+00   0.269E-12 0.128E-04 0.111E-02
   0.129E-04 0.111E+02 -.109E+02   -.463E-04 -.109E+02 0.108E+02   -.107E-18 -.270E+00 0.228E+00   0.106E-09 0.196E-03 -.292E-02
   0.129E-04 0.502E+01 -.753E+01   -.463E-04 -.532E+01 0.779E+01   0.705E-18 0.392E+00 -.410E+00   0.102E-09 -.744E-04 -.274E-02
   0.466E-07 -.122E+02 -.153E+02   -.165E-06 0.118E+02 0.151E+02   -.861E-18 0.575E+00 0.421E+00   0.790E-12 0.176E-03 -.242E-02
   0.437E-07 -.532E+01 -.101E+02   -.165E-06 0.559E+01 0.104E+02   0.753E-18 -.355E+00 -.670E+00   0.245E-12 0.704E-04 -.257E-02
   0.498E+00 -.208E+01 -.117E+02   -.544E+00 0.210E+01 0.115E+02   0.355E-01 0.553E-01 -.383E+00   -.465E-04 0.394E-04 -.123E-02
   -.498E+00 -.208E+01 -.117E+02   0.544E+00 0.210E+01 0.115E+02   -.355E-01 0.553E-01 -.383E+00   0.465E-04 0.394E-04 -.123E-02
   0.412E+00 0.204E+01 -.111E+02   -.489E+00 -.207E+01 0.107E+02   0.715E-01 -.397E-01 -.191E+00   0.149E-04 -.441E-04 -.921E-03
   -.413E+00 0.204E+01 -.111E+02   0.489E+00 -.207E+01 0.107E+02   -.715E-01 -.397E-01 -.191E+00   -.149E-04 -.441E-04 -.921E-03
   0.412E+01 0.122E+02 0.138E+02   -.385E+01 -.122E+02 -.160E+02   -.209E+00 0.132E+00 0.190E+01   0.185E-03 0.164E-04 -.257E-02
   -.412E+01 0.122E+02 0.138E+02   0.385E+01 -.122E+02 -.160E+02   0.209E+00 0.132E+00 0.190E+01   -.185E-03 0.164E-04 -.257E-02
   0.116E+02 -.186E+02 -.711E+00   -.109E+02 0.179E+02 0.895E+00   -.432E+00 0.713E+00 0.234E+00   -.247E-03 0.419E-03 -.191E-02
   -.116E+02 -.186E+02 -.711E+00   0.109E+02 0.179E+02 0.895E+00   0.432E+00 0.713E+00 0.234E+00   0.247E-03 0.419E-03 -.191E-02
   0.431E+00 -.949E+00 -.124E+02   -.462E+00 0.935E+00 0.126E+02   -.614E-01 0.821E-01 0.583E+00   -.436E-04 -.154E-03 -.223E-02
   -.431E+00 -.949E+00 -.124E+02   0.462E+00 0.935E+00 0.126E+02   0.614E-01 0.821E-01 0.583E+00   0.436E-04 -.154E-03 -.223E-02
   0.215E-01 -.481E+01 -.266E+02   -.202E-01 0.741E+01 0.329E+02   0.325E-02 -.139E+01 -.581E+01   -.157E-04 0.215E-03 0.184E-02
   -.215E-01 -.481E+01 -.266E+02   0.202E-01 0.741E+01 0.329E+02   -.325E-02 -.139E+01 -.581E+01   0.157E-04 0.215E-03 0.184E-02
   0.627E+01 0.121E+01 -.232E+02   -.607E+01 -.115E+01 0.233E+02   -.339E-01 -.106E-01 0.770E+00   0.386E-04 0.946E-04 -.225E-02
   -.627E+01 0.121E+01 -.232E+02   0.607E+01 -.115E+01 0.233E+02   0.339E-01 -.106E-01 0.770E+00   -.386E-04 0.946E-04 -.225E-02
   0.403E-01 0.482E+01 -.270E+02   -.467E-01 -.741E+01 0.334E+02   0.253E-01 0.138E+01 -.582E+01   -.262E-06 -.214E-03 0.188E-02
   -.403E-01 0.482E+01 -.270E+02   0.468E-01 -.741E+01 0.334E+02   -.253E-01 0.138E+01 -.582E+01   0.262E-06 -.214E-03 0.188E-02
   0.584E-07 0.801E+01 -.148E+02   -.210E-06 -.759E+01 0.124E+02   0.408E-18 -.412E+00 0.242E+01   0.826E-12 -.546E-03 -.170E-02
   -.101E-03 0.204E+00 -.210E+01   -.101E-13 0.240E-13 0.168E-11   0.408E-18 -.204E+00 0.216E+01   0.218E-09 0.110E-02 0.414E-02

 POSITION                                       TOTAL-FORCE (eV/Angst)
      3.94360      0.39436      9.45916        -0.000000     -0.151875     -1.067667
      0.78872      0.39436     12.45916        -0.000000      0.040569      0.472729
      3.94360      0.39436     12.45916        -0.000000      0.144619     -0.598483
      0.78872      0.39436     15.45917        -0.000000     -0.176432      0.114719
      3.94360      0.39436     15.45917        -0.000000     -0.134848      0.219232
      0.78872      3.54924      9.45916        -0.000000      0.075584     -0.012546
      3.94360      3.54924      9.45916        -0.000000     -0.115229      0.344260
      0.78872      3.54924     12.45916        -0.000000     -0.369059     -0.386278
      3.94360      3.54924     12.45916        -0.000000     -0.099163     -0.082049
      0.78872      3.54924     15.45917        -0.000000      0.016442     -0.014067
      3.94360      3.54924     15.45917        -0.000000     -0.132244     -0.058771
      0.78872      6.70412      9.45916        -0.000000     -0.522182     -1.164975
      3.94360      6.70412      9.45916        -0.000000      0.128031     -1.257806
      0.78872      6.70412     12.45916        -0.000000      0.261547     -0.384797
      3.94360      6.70412     12.45916        -0.000000      0.014777     -0.196746
      0.78872      6.70412     15.45917        -0.000000      0.130273      0.200542
      3.94360      6.70412     15.45917        -0.000000      0.226458      0.165893
      2.36616      1.97180     10.95916        -0.064451     -0.040073     -0.354611
      5.52104      1.97180     10.95916         0.064451     -0.040073     -0.354611
      2.36616      1.97180     13.95917        -0.106048      0.118070      0.121849
      5.52104      1.97180     13.95917         0.106048      0.118070      0.121849
      2.36616      1.97180     16.95916         0.008856      1.412607      0.083141
      5.52104      1.97180     16.95916        -0.008856      1.412607      0.083141
      2.36616      5.12668     10.95916        -0.047497     -0.165457     -0.112312
      5.52104      5.12668     10.95916         0.047497     -0.165457     -0.112312
      2.36616      5.12668     13.95917         0.062482     -0.066072      0.257227
      5.52104      5.12668     13.95917        -0.062482     -0.066072      0.257227
      2.36616      5.12668     16.95916         0.009053     -1.378267      0.078713
      5.52104      5.12668     16.95916        -0.009053     -1.378267      0.078713
      2.36616      8.28156     10.95916        -0.102436      0.099343     -0.343492
      5.52104      8.28156     10.95916         0.102436      0.099343     -0.343492
      2.36616      8.28156     13.95917        -0.091443     -0.020096      0.104505
      5.52104      8.28156     13.95917         0.091443     -0.020096      0.104505
      2.36616      8.28156     16.95916        -0.006095     -0.009359      1.409674
      5.52104      8.28156     16.95916         0.006095     -0.009359      1.409674
      0.78872      5.91540      6.75000        -0.000000      0.157716      0.711575
      3.94360      5.91540      6.75000        -0.000000      0.188379      0.835958
      0.78872      5.91540      2.24999        -0.000000      0.004744      0.231521
      3.94360      5.91540      2.24999        -0.000000      0.011869      0.209647
      3.94360      1.18308      6.75000        -0.000000     -0.075047      0.532487
      0.78872      1.18308      2.24999        -0.000000     -0.035001      0.274316
      3.94360      1.18308      2.24999        -0.000000     -0.006802      0.225607
      0.78872      3.54924      0.75000        -0.000000      0.009364     -1.921216
      3.94360      3.54924      0.75000        -0.000000     -0.010387     -1.967312
      0.78872      8.28156      0.75000        -0.000000      0.000732     -0.724786
      3.94360      8.28156      0.75000        -0.000000     -0.024462     -0.761316
      0.78872      3.54924      5.25001        -0.000000     -0.024225      0.172025
      3.94360      3.54924      5.25001        -0.000000      0.093982     -0.156978
      0.78872      8.28156      5.25001        -0.000000      0.144469      0.246950
      3.94360      8.28156      5.25001        -0.000000     -0.082438     -0.306151
      2.36616      8.28156      2.99999        -0.011339      0.070040     -0.540166
      5.52104      8.28156      2.99999         0.011339      0.070040     -0.540166
      2.36615      3.54924      2.99999        -0.004922     -0.066338     -0.537879
      5.52103      3.54924      2.99999         0.004922     -0.066338     -0.537879
      2.36616      3.54924      7.50000         0.067952      0.105198     -0.365213
      5.52104      3.54924      7.50000        -0.067952      0.105198     -0.365213
      2.36616      8.28156      7.50000         0.254529     -0.016108      0.414722
      5.52104      8.28156      7.50000        -0.254529     -0.016108      0.414722
      2.36616      5.91540      4.49999        -0.093030      0.068390      0.765161
      5.52104      5.91540      4.49999         0.093030      0.068390      0.765161
      2.36616      5.91540      0.00000         0.004468      1.204527      0.564700
      5.52104      5.91540      0.00000        -0.004468      1.204527      0.564700
      2.36616      1.18308      4.50001         0.164983      0.045783      0.950466
      5.52104      1.18308      4.50001        -0.164983      0.045783      0.950466
      2.36616      1.18308      0.00000         0.018809     -1.208081      0.553496
      5.52104      1.18308      0.00000        -0.018809     -1.208081      0.553496
      0.78872      1.21460      7.02779        -0.000000      0.001630      0.004522
    total drift:                               -0.000101      0.001237      0.060927

  FREE ENERGIE OF THE ION-ELECTRON SYSTEM (eV)
  free  energy   TOTEN  =      -499.62034616 eV

  energy  without entropy=     -499.61682517  energy(sigma->0) =     -499.61917249

 d Force = 0.6174676E-06[ 0.239E-06, 0.996E-06]  d Energy = 0.5327929E-06 0.847E-07
 d Force =-0.4001666E-02[-0.401E-02,-0.400E-02]  d Ewald  =-0.4001666E-02 0.418E-10

 stress matrix after NEB project (eV)
     -6.78887      0.00000      0.00000
      0.00000      2.34038     -3.39417
      0.00000     -3.39417     27.31088
  FORCES: max atom, RMS     0.004807    0.000587
  FORCE total and by dimension    0.004807    0.004522
  Stress total and by dimension   28.644214   27.310877

 reached required accuracy - stopping structural energy minimisation