 vasp.5.4.1 24Jun15 (build Aug 19 2019 16:40:33) complex

 executed on           IFC91_ompi date 2020.05.13  09:37:21

 INCAR:
 POTCAR:    PAW_PBE Ti 08Apr2002
 POTCAR:    PAW_PBE Mo_sv 02Feb2006

 POTCAR:    PAW_PBE Ti 08Apr2002
   VRHFIN =Ti: d3 s1

   TITEL  = PAW_PBE Ti 08Apr2002
   POMASS =   47.880; ZVAL   =    4.000    mass and valenz
   ENMAX  =  178.330; ENMIN  =  133.747 eV

 POTCAR:    PAW_PBE Mo_sv 02Feb2006
   VRHFIN =Mo: 4p5s4d

   TITEL  = PAW_PBE Mo_sv 02Feb2006
   POMASS =   95.940; ZVAL   =   14.000    mass and valenz
   ENMAX  =  242.676; ENMIN  =  182.007 eV

 Optimization of the real space projectors (new method)

 maximal supplied QI-value         = 13.42
 optimisation between [QCUT,QGAM] = [  9.93, 19.86] = [ 27.60,110.42] Ry
 Optimized for a Real-space Cutoff    1.59 Angstroem

   l    n(q)    QCUT    max X(q) W(low)/X(q) W(high)/X(q)  e(spline)
   2      9     9.929    49.363    0.27E-03    0.79E-03    0.35E-06
   2      9     9.929    47.669    0.26E-03    0.77E-03    0.34E-06
   0      9     9.929    26.374    0.19E-03    0.47E-04    0.12E-06
   0      9     9.929    11.549    0.15E-03    0.39E-04    0.96E-07
   1      9     9.929     9.492    0.16E-04    0.78E-04    0.41E-07
 Optimization of the real space projectors (new method)

 maximal supplied QI-value         = 15.12
 optimisation between [QCUT,QGAM] = [  9.98, 19.96] = [ 27.88,111.51] Ry
 Optimized for a Real-space Cutoff    1.55 Angstroem

   l    n(q)    QCUT    max X(q) W(low)/X(q) W(high)/X(q)  e(spline)
   0      9     9.978     3.559    0.34E-04    0.66E-04    0.47E-07
   0      9     9.978    20.730    0.60E-04    0.62E-04    0.58E-07
   1      9     9.978     3.279    0.56E-05    0.17E-04    0.26E-07
   1      9     9.978     4.693    0.29E-03    0.37E-04    0.20E-06
   2      8     9.978    67.616    0.32E-03    0.40E-03    0.40E-06
   2      8     9.978    62.420    0.32E-03    0.40E-03    0.40E-06
  PAW_PBE Ti 08Apr2002                  :
  PAW_PBE Mo_sv 02Feb2006               :

 POSCAR: Ti96 Mo1
  positions in direct lattice
  velocities in cartesian coordinates
 exchange correlation table for  LEXCH =       14
   RHO(1)=    0.500       N(1)  =     2000
   RHO(2)=  100.500       N(2)  =     4000

 VTST: version 3.2, (02/03/18)

 CHAIN: initializing optimizer

 OPT: Using VASP Conjugate-Gradient optimizer
 CHAIN: Read ICHAIN            0

 POSCAR: Ti96 Mo1
  positions in direct lattice
  velocities in cartesian coordinates

 ion  position               nearest neighbor table
   1  0.135  0.381  0.409-  25 2.76  14 2.82  82 2.83  39 2.86  85 2.86  87 2.88  13 2.93  27 2.96
                            81 2.97  73 3.08  40 3.16
   2  0.642  0.360  0.414-  86 2.66  28 2.75  81 2.76  26 2.77  40 2.84  38 2.91  88 2.97  13 2.97
                            74 2.98  14 3.03  82 3.06
   3  0.167  0.890  0.402-  83 2.67  16 2.75  27 2.79  15 2.82  37 2.86  87 2.86  25 2.88  85 2.89
                            84 2.90   7 3.02  39 3.05
   4  0.641  0.932  0.421-  97 2.53  86 2.60  26 2.76  84 2.79  15 2.81  83 2.81  38 2.84  88 2.87
                            76 2.99  37 3.16
   5  0.157  0.382  0.237-  13 2.71  25 2.74  18 2.74  31 2.82  43 2.82  14 2.88  17 2.90  29 2.93
                             9 2.96  41 3.04  27 3.09
   6  0.660  0.372  0.230-  28 2.68  17 2.69  26 2.78  30 2.79  14 2.79  18 2.81  10 2.82  32 2.83
                            44 2.85  42 2.86  13 3.08
   7  0.166  0.877  0.239-  16 2.76  41 2.82  27 2.83  20 2.83  19 2.85  43 2.86  29 2.90  31 2.92
                            15 2.96  25 2.98  11 2.99   3 3.02
   8  0.653  0.890  0.234-  97 2.50  19 2.68  30 2.72  15 2.81  26 2.84  42 2.85  20 2.90  12 2.90
                            32 2.95  16 3.08
   9  0.167  0.375  0.078-  22 2.78  18 2.78  21 2.78  17 2.78  45 2.82  47 2.82  33 2.86  35 2.86
                            29 2.86  31 2.86   5 2.96  57 3.13
  10  0.667  0.375  0.078-  21 2.78  17 2.78  22 2.78  18 2.78   6 2.82  46 2.82  48 2.82  34 2.86
                            36 2.86  30 2.86  32 2.86  58 3.13
  11  0.167  0.875  0.078-  24 2.78  20 2.78  23 2.78  19 2.78  45 2.82  47 2.82  33 2.86  35 2.86
                            29 2.86  31 2.86   7 2.99  59 3.13
  12  0.667  0.875  0.078-  23 2.78  19 2.78  24 2.78  20 2.78  46 2.82  48 2.82  34 2.86  36 2.86
                            30 2.86  32 2.86   8 2.90  60 3.13
  13  0.389  0.355  0.320-   5 2.71  28 2.71  41 2.74  37 2.76  26 2.86  39 2.88   1 2.93   2 2.97
                            43 2.98  17 3.08   6 3.08
  14  0.898  0.361  0.317-  40 2.76  38 2.77  42 2.78   6 2.79   1 2.82  44 2.84  25 2.86   5 2.88
                            18 3.01   2 3.03  27 3.17
  15  0.423  0.853  0.327-  39 2.79   4 2.81   8 2.81   3 2.82  43 2.83  28 2.95   7 2.96  37 2.96
                            83 3.02  41 3.09  26 3.17  97 3.26
  16  0.927  0.924  0.321-  97 2.36  42 2.68  25 2.71  38 2.75   3 2.75   7 2.76  27 2.95  84 2.98
                             8 3.08  20 3.10
  17  0.417  0.375  0.155-   6 2.69  10 2.78   9 2.78  30 2.82  32 2.82  45 2.86  47 2.86  21 2.88
                             5 2.90  43 2.90  41 2.93  13 3.08
  18  0.917  0.375  0.155-  44 2.72   5 2.74   9 2.78  10 2.78  42 2.79   6 2.81  29 2.82  31 2.82
                            46 2.86  48 2.86  22 2.88  14 3.01
  19  0.417  0.875  0.155-   8 2.68  12 2.78  11 2.78  41 2.82  32 2.82  30 2.82   7 2.85  45 2.86
                            47 2.86  23 2.88  43 2.92
  20  0.917  0.875  0.155-  11 2.78  12 2.78  29 2.82  31 2.82   7 2.83  42 2.83  46 2.86  48 2.86
                            24 2.88   8 2.90  44 2.95  16 3.10
  21  0.417  0.375  0.000-  58 2.59  10 2.78   9 2.78  36 2.82  34 2.82  47 2.86  45 2.86  17 2.88
                            61 2.90  63 2.90
  22  0.917  0.375  0.000-  57 2.59   9 2.78  10 2.78  35 2.82  33 2.82  48 2.86  46 2.86  18 2.88
                            62 2.90  64 2.90
  23  0.417  0.875  0.000-  60 2.59  12 2.78  11 2.78  36 2.82  34 2.82  47 2.86  45 2.86  19 2.88
                            61 2.90  63 2.90
  24  0.917  0.875  0.000-  59 2.59  11 2.78  12 2.78  35 2.82  33 2.82  48 2.86  46 2.86  20 2.88
                            62 2.90  64 2.90
  25  0.111  0.145  0.320-  41 2.71  16 2.71   5 2.74   1 2.76  14 2.86   3 2.88  37 2.93  38 2.97
                             7 2.98  29 3.08  42 3.08
  26  0.602  0.139  0.317-   4 2.76   2 2.77   6 2.78  42 2.79  37 2.82   8 2.84  13 2.86  41 2.88
                            30 3.01  38 3.03  15 3.17
  27  0.077  0.647  0.327-   3 2.79  40 2.81  44 2.81  39 2.82   7 2.83  16 2.95  43 2.96   1 2.96
                            87 3.02   5 3.09  14 3.17  97 3.26
  28  0.573  0.576  0.321-  97 2.36   6 2.68  13 2.71   2 2.75  39 2.75  43 2.76  15 2.95  88 2.98
                            44 3.08  32 3.10
  29  0.083  0.125  0.155-  42 2.69  45 2.78  46 2.78  20 2.82  18 2.82  11 2.86   9 2.86  33 2.88
                            41 2.90   7 2.90   5 2.93  25 3.08
  30  0.583  0.125  0.155-   8 2.72  41 2.74  45 2.78  46 2.78   6 2.79  42 2.81  17 2.82  19 2.82
                            10 2.86  12 2.86  34 2.88  26 3.01
  31  0.083  0.625  0.155-  44 2.68  47 2.78  48 2.78   5 2.82  20 2.82  18 2.82  43 2.85   9 2.86
                            11 2.86  35 2.88   7 2.92
  32  0.583  0.625  0.155-  47 2.78  48 2.78  17 2.82  19 2.82  43 2.83   6 2.83  12 2.86  10 2.86
                            36 2.88  44 2.90   8 2.95  28 3.10
  33  0.083  0.125  0.000-  62 2.59  46 2.78  45 2.78  24 2.82  22 2.82  11 2.86   9 2.86  29 2.88
                            59 2.90  57 2.90
  34  0.583  0.125  0.000-  61 2.59  46 2.78  45 2.78  23 2.82  21 2.82  12 2.86  10 2.86  30 2.88
                            60 2.90  58 2.90
  35  0.083  0.625  0.000-  64 2.59  48 2.78  47 2.78  24 2.82  22 2.82  11 2.86   9 2.86  31 2.88
                            59 2.90  57 2.90
  36  0.583  0.625  0.000-  63 2.59  48 2.78  47 2.78  23 2.82  21 2.82  12 2.86  10 2.86  32 2.88
                            60 2.90  58 2.90
  37  0.365  0.119  0.409-  13 2.76  26 2.82  86 2.83   3 2.86  81 2.86  83 2.88  25 2.93  15 2.96
                            85 2.97  77 3.08   4 3.16
  38  0.858  0.140  0.414-  82 2.66  16 2.75  85 2.76  14 2.77   4 2.84   2 2.91  84 2.97  25 2.97
                            78 2.98  26 3.03  86 3.06
  39  0.333  0.610  0.402-  87 2.67  28 2.75  15 2.79  27 2.82   1 2.86  83 2.86  13 2.88  81 2.89
                            88 2.90  43 3.02   3 3.05
  40  0.859  0.568  0.421-  97 2.53  82 2.60  14 2.76  88 2.79  27 2.81  87 2.81   2 2.84  84 2.87
                            80 2.99   1 3.16
  41  0.343  0.118  0.237-  25 2.71  13 2.74  30 2.74  19 2.82   7 2.82  26 2.88  29 2.90  17 2.93
                            45 2.96   5 3.04  15 3.09
  42  0.840  0.128  0.230-  16 2.68  29 2.69  14 2.78  18 2.79  26 2.79  30 2.81  46 2.82  20 2.83
                             8 2.85   6 2.86  25 3.08
  43  0.334  0.623  0.239-  28 2.76   5 2.82  15 2.83  32 2.83  31 2.85   7 2.86  17 2.90  19 2.92
                            27 2.96  13 2.98  47 2.99  39 3.02
  44  0.847  0.610  0.234-  97 2.50  31 2.68  18 2.72  27 2.81  14 2.84   6 2.85  32 2.90  48 2.90
                            20 2.95  28 3.08
  45  0.333  0.125  0.078-  33 2.78  34 2.78  29 2.78  30 2.78   9 2.82  11 2.82  21 2.86  23 2.86
                            17 2.86  19 2.86  41 2.96  61 3.13
  46  0.833  0.125  0.078-  33 2.78  34 2.78  29 2.78  30 2.78  42 2.82  12 2.82  10 2.82  24 2.86
                            22 2.86  20 2.86  18 2.86  62 3.13
  47  0.333  0.625  0.078-  35 2.78  36 2.78  31 2.78  32 2.78   9 2.82  11 2.82  21 2.86  23 2.86
                            17 2.86  19 2.86  43 2.99  63 3.13
  48  0.833  0.625  0.078-  35 2.78  36 2.78  31 2.78  32 2.78  10 2.82  12 2.82  22 2.86  24 2.86
                            18 2.86  20 2.86  44 2.90  64 3.13
  49  0.375  0.375  0.824-  91 2.83  95 2.83  61 2.83  63 2.83  94 2.87  93 2.87  57 2.87  58 2.87

  50  0.875  0.375  0.824-  92 2.83  96 2.83  62 2.83  64 2.83  94 2.87  93 2.87  57 2.87  58 2.87
                            66 3.16
  51  0.375  0.875  0.824-  91 2.83  95 2.83  61 2.83  63 2.83  89 2.87  90 2.87  59 2.87  60 2.87
                            67 2.93
  52  0.875  0.875  0.824-  92 2.83  96 2.83  62 2.83  64 2.83  89 2.87  90 2.87  59 2.87  60 2.87
                            68 2.88
  53  0.125  0.125  0.824-  89 2.83  93 2.83  57 2.83  59 2.83  95 2.87  96 2.87  61 2.87  62 2.87

  54  0.625  0.125  0.824-  90 2.83  94 2.83  58 2.83  60 2.83  95 2.87  96 2.87  61 2.87  62 2.87
                            70 3.16
  55  0.125  0.625  0.824-  89 2.83  93 2.83  57 2.83  59 2.83  92 2.87  91 2.87  63 2.87  64 2.87
                            71 2.93
  56  0.625  0.625  0.824-  90 2.83  94 2.83  58 2.83  60 2.83  92 2.87  91 2.87  63 2.87  64 2.87
                            72 2.88
  57  0.125  0.375  0.910-  22 2.59  53 2.83  55 2.83  49 2.87  50 2.87  33 2.90  35 2.90   9 3.13

  58  0.625  0.375  0.910-  21 2.59  54 2.83  56 2.83  49 2.87  50 2.87  34 2.90  36 2.90  10 3.13

[...]

[...]
   0.887E+01 0.149E+02 0.138E+02   -.832E+01 -.152E+02 -.140E+02   -.547E+00 0.304E+00 0.206E+00   0.173E-03 -.196E-04 0.512E-03
   -.138E+02 -.491E+01 0.143E+02   0.140E+02 0.494E+01 -.142E+02   -.236E+00 -.345E-01 -.161E+00   -.163E-03 0.677E-04 0.351E-03
   0.347E+02 -.415E+02 0.731E+02   -.344E+02 0.419E+02 -.736E+02   -.298E+00 -.442E+00 0.500E+00   0.343E-03 -.184E-03 0.806E-03
   -.428E+01 0.144E+01 0.320E+02   0.441E+01 -.147E+01 -.322E+02   -.252E+00 -.370E-03 0.864E-01   -.687E-04 0.556E-04 0.535E-04
   0.352E+00 0.196E+01 0.401E+02   -.428E+00 -.185E+01 -.404E+02   -.177E+00 -.835E-01 0.849E-01   0.205E-04 0.297E-04 0.292E-03
   -.435E+01 -.107E+01 0.332E+02   0.437E+01 0.108E+01 -.334E+02   -.185E+00 -.199E-01 0.806E-01   -.234E-04 -.712E-04 -.728E-04
   0.560E+00 -.163E+01 0.439E+02   -.581E+00 0.159E+01 -.441E+02   -.122E+00 0.690E-01 -.110E-01   -.388E-04 -.415E-04 0.211E-03
   0.120E+02 0.615E+01 -.625E+01   -.118E+02 -.634E+01 0.648E+01   -.291E+00 0.186E+00 -.230E+00   -.113E-03 -.288E-03 0.378E-03
   -.126E+02 0.189E+02 -.388E+01   0.132E+02 -.189E+02 0.363E+01   -.563E+00 -.376E-01 0.252E+00   -.129E-03 0.148E-04 0.225E-03
   0.438E+02 -.179E+02 0.187E+01   -.439E+02 0.184E+02 -.178E+01   0.114E+00 -.455E+00 -.867E-01   0.341E-03 -.123E-04 0.533E-03
   -.739E+02 -.694E+02 0.972E+01   0.751E+02 0.696E+02 -.981E+01   -.124E+01 -.250E+00 0.896E-01   -.650E-03 -.435E-03 0.445E-03
   0.111E+02 0.301E+01 0.190E+02   -.115E+02 -.300E+01 -.188E+02   -.220E+00 0.944E-01 0.154E+00   0.101E-03 -.774E-04 0.359E-03
   -.704E+01 0.604E+01 0.267E+02   0.716E+01 -.602E+01 -.266E+02   -.283E+00 -.986E-01 -.364E+00   -.108E-03 0.171E-04 0.449E-03
   0.147E+02 -.175E+01 0.245E+02   -.148E+02 0.156E+01 -.244E+02   -.329E+00 0.653E-01 -.770E-01   0.196E-03 0.429E-05 0.169E-03
   -.115E+02 -.496E+01 0.376E+02   0.118E+02 0.504E+01 -.377E+02   -.601E+00 -.226E+00 0.341E+00   -.165E-03 -.608E-04 0.405E-03
   0.126E+02 0.678E+00 0.344E+02   -.131E+02 -.681E+00 -.344E+02   -.418E+00 0.375E-02 -.205E-01   -.102E-03 0.891E-04 -.892E-04
   0.926E+01 0.905E+00 0.362E+02   -.969E+01 -.862E+00 -.362E+02   -.492E+00 0.118E-02 0.218E-01   0.134E-03 0.103E-03 0.129E-03
   0.129E+02 -.666E+00 0.350E+02   -.133E+02 0.644E+00 -.350E+02   -.473E+00 0.403E-01 0.162E-01   -.854E-04 -.867E-04 -.115E-03
   0.904E+01 -.833E+00 0.369E+02   -.946E+01 0.834E+00 -.369E+02   -.479E+00 0.296E-02 0.723E-02   0.118E-03 -.105E-03 -.147E-05
   -.120E+02 -.615E+01 -.625E+01   0.118E+02 0.634E+01 0.648E+01   0.291E+00 -.186E+00 -.230E+00   0.113E-03 0.288E-03 0.378E-03
   0.126E+02 -.189E+02 -.388E+01   -.132E+02 0.189E+02 0.363E+01   0.563E+00 0.376E-01 0.252E+00   0.129E-03 -.147E-04 0.225E-03
   -.438E+02 0.179E+02 0.187E+01   0.439E+02 -.184E+02 -.178E+01   -.114E+00 0.455E+00 -.867E-01   -.341E-03 0.123E-04 0.533E-03
   0.739E+02 0.694E+02 0.972E+01   -.751E+02 -.696E+02 -.981E+01   0.124E+01 0.250E+00 0.896E-01   0.650E-03 0.435E-03 0.445E-03
   -.111E+02 -.301E+01 0.190E+02   0.115E+02 0.300E+01 -.188E+02   0.220E+00 -.944E-01 0.154E+00   -.101E-03 0.775E-04 0.359E-03
   0.704E+01 -.604E+01 0.267E+02   -.716E+01 0.602E+01 -.266E+02   0.283E+00 0.986E-01 -.364E+00   0.108E-03 -.170E-04 0.449E-03
   -.147E+02 0.175E+01 0.245E+02   0.148E+02 -.156E+01 -.244E+02   0.329E+00 -.653E-01 -.770E-01   -.196E-03 -.434E-05 0.169E-03
   0.115E+02 0.496E+01 0.376E+02   -.118E+02 -.504E+01 -.377E+02   0.601E+00 0.226E+00 0.341E+00   0.165E-03 0.607E-04 0.405E-03
   -.126E+02 -.678E+00 0.344E+02   0.131E+02 0.681E+00 -.344E+02   0.418E+00 -.375E-02 -.205E-01   0.102E-03 -.891E-04 -.892E-04
   -.926E+01 -.905E+00 0.362E+02   0.969E+01 0.862E+00 -.362E+02   0.492E+00 -.118E-02 0.218E-01   -.134E-03 -.103E-03 0.129E-03
   -.129E+02 0.666E+00 0.350E+02   0.133E+02 -.644E+00 -.350E+02   0.473E+00 -.403E-01 0.162E-01   0.854E-04 0.867E-04 -.115E-03
   -.904E+01 0.833E+00 0.369E+02   0.946E+01 -.834E+00 -.369E+02   0.479E+00 -.296E-02 0.723E-02   -.118E-03 0.105E-03 -.148E-05
   0.123E+02 -.792E+01 -.153E+02   -.121E+02 0.757E+01 0.155E+02   -.167E+00 0.353E+00 -.222E+00   -.107E-03 0.122E-03 0.783E-04
   -.796E+01 -.158E+02 -.211E+02   0.766E+01 0.156E+02 0.213E+02   0.292E+00 0.237E+00 -.190E+00   -.542E-04 -.540E-04 -.459E-04
   0.119E+02 0.120E+02 -.210E+02   -.120E+02 -.115E+02 0.207E+02   0.597E-01 -.450E+00 0.268E+00   0.388E-04 0.428E-04 0.443E-03
   -.357E+02 0.576E+02 -.688E+02   0.363E+02 -.574E+02 0.690E+02   -.591E+00 -.284E+00 -.269E+00   -.220E-03 0.418E-03 -.295E-03
   0.626E+01 -.224E+01 0.663E+01   -.632E+01 0.244E+01 -.671E+01   0.577E-01 -.201E+00 0.823E-01   0.916E-04 0.273E-03 0.583E-03
   -.887E+01 -.149E+02 0.138E+02   0.832E+01 0.152E+02 -.140E+02   0.547E+00 -.304E+00 0.206E+00   -.173E-03 0.196E-04 0.512E-03
   0.138E+02 0.491E+01 0.143E+02   -.140E+02 -.494E+01 -.142E+02   0.236E+00 0.345E-01 -.161E+00   0.163E-03 -.678E-04 0.351E-03
   -.347E+02 0.415E+02 0.731E+02   0.344E+02 -.419E+02 -.736E+02   0.298E+00 0.442E+00 0.500E+00   -.343E-03 0.184E-03 0.806E-03
   0.428E+01 -.144E+01 0.320E+02   -.441E+01 0.147E+01 -.322E+02   0.252E+00 0.370E-03 0.864E-01   0.686E-04 -.556E-04 0.535E-04
   -.352E+00 -.196E+01 0.401E+02   0.428E+00 0.185E+01 -.404E+02   0.177E+00 0.835E-01 0.849E-01   -.204E-04 -.297E-04 0.292E-03
   0.435E+01 0.107E+01 0.332E+02   -.437E+01 -.108E+01 -.334E+02   0.185E+00 0.199E-01 0.806E-01   0.233E-04 0.711E-04 -.728E-04
   -.561E+00 0.163E+01 0.439E+02   0.582E+00 -.159E+01 -.441E+02   0.122E+00 -.690E-01 -.110E-01   0.388E-04 0.414E-04 0.211E-03
   0.330E+01 0.132E+01 -.260E+01   -.309E+01 -.148E+01 0.277E+01   -.221E+00 0.124E+00 -.279E+00   -.329E-03 0.806E-04 0.241E-04
   0.190E+01 0.120E+01 -.385E+01   -.167E+01 -.133E+01 0.391E+01   -.153E+00 0.101E+00 -.212E+00   0.328E-03 0.144E-03 0.774E-04
   0.288E+01 -.211E+01 -.877E+01   -.275E+01 0.223E+01 0.855E+01   -.712E-01 0.209E-01 -.101E+00   -.256E-03 -.812E-04 0.695E-04
   0.180E+01 -.200E+01 -.978E+01   -.162E+01 0.212E+01 0.955E+01   -.640E-01 -.141E-01 -.504E-01   0.273E-03 -.149E-03 0.165E-03
   -.330E+01 -.132E+01 -.260E+01   0.309E+01 0.148E+01 0.277E+01   0.221E+00 -.124E+00 -.279E+00   0.329E-03 -.806E-04 0.241E-04
   -.190E+01 -.120E+01 -.385E+01   0.167E+01 0.133E+01 0.391E+01   0.153E+00 -.101E+00 -.212E+00   -.328E-03 -.144E-03 0.774E-04
   -.288E+01 0.211E+01 -.877E+01   0.275E+01 -.223E+01 0.855E+01   0.712E-01 -.209E-01 -.101E+00   0.256E-03 0.812E-04 0.696E-04
   -.180E+01 0.200E+01 -.978E+01   0.162E+01 -.212E+01 0.955E+01   0.640E-01 0.141E-01 -.504E-01   -.273E-03 0.149E-03 0.165E-03
   -.111E+02 0.826E+00 0.168E+02   0.115E+02 -.857E+00 -.174E+02   -.311E-01 0.325E-01 0.531E+00   0.228E-03 0.120E-03 -.363E-04
   -.980E+01 0.846E+00 0.173E+02   0.102E+02 -.862E+00 -.179E+02   -.429E-01 0.304E-01 0.512E+00   -.228E-03 0.142E-03 0.205E-03
   -.111E+02 -.884E+00 0.158E+02   0.115E+02 0.936E+00 -.163E+02   -.298E-01 0.878E-02 0.514E+00   0.198E-03 -.117E-03 -.438E-04
   -.980E+01 -.904E+00 0.166E+02   0.102E+02 0.946E+00 -.170E+02   -.258E-01 -.175E-01 0.488E+00   -.213E-03 -.142E-03 0.152E-03
[...]
   -.232E+02 -.184E+02 -.669E+02   0.236E+02 0.184E+02 0.671E+02   -.470E+00 -.228E-01 -.205E+00   -.193E-04 -.184E-03 -.309E-03
   -.992E+01 -.235E+00 -.178E+02   0.964E+01 0.406E+00 0.177E+02   0.277E+00 -.171E+00 0.763E-01   0.142E-03 -.370E-04 -.840E-04
   0.357E+01 -.386E+01 -.280E+02   -.392E+01 0.408E+01 0.280E+02   0.350E+00 -.219E+00 0.501E-01   -.610E-04 -.119E-04 -.187E-03
   -.137E+02 0.613E+01 -.344E+02   0.132E+02 -.598E+01 0.343E+02   0.496E+00 -.153E+00 0.369E-01   0.590E-04 0.119E-03 -.122E-03
   0.232E+02 0.184E+02 -.669E+02   -.236E+02 -.184E+02 0.671E+02   0.470E+00 0.228E-01 -.205E+00   0.194E-04 0.184E-03 -.309E-03
   -.505E+01 -.803E+01 -.202E+02   0.540E+01 0.838E+01 0.209E+02   -.411E-01 0.196E+00 -.291E+00   0.256E-03 -.659E-04 -.161E-03
   -.238E+01 -.785E+01 -.208E+02   0.257E+01 0.831E+01 0.214E+02   0.369E-02 0.689E-01 -.370E+00   -.309E-03 -.571E-04 -.259E-03
   0.505E+01 0.803E+01 -.202E+02   -.540E+01 -.838E+01 0.209E+02   0.411E-01 -.196E+00 -.291E+00   -.256E-03 0.659E-04 -.161E-03
   0.238E+01 0.785E+01 -.208E+02   -.257E+01 -.831E+01 0.214E+02   -.369E-02 -.689E-01 -.370E+00   0.309E-03 0.571E-04 -.259E-03
   -.709E+01 0.337E+01 -.179E+02   0.729E+01 -.343E+01 0.183E+02   0.592E-01 -.185E+00 -.185E+00   0.273E-03 0.583E-04 -.247E-03
   -.407E+01 0.319E+01 -.193E+02   0.438E+01 -.316E+01 0.198E+02   -.144E+00 -.142E+00 -.133E+00   -.264E-03 0.478E-04 -.415E-03
   0.709E+01 -.337E+01 -.179E+02   -.729E+01 0.343E+01 0.183E+02   -.592E-01 0.185E+00 -.185E+00   -.273E-03 -.583E-04 -.247E-03
   0.407E+01 -.319E+01 -.193E+02   -.438E+01 0.316E+01 0.198E+02   0.144E+00 0.142E+00 -.133E+00   0.264E-03 -.478E-04 -.415E-03
   0.586E-04 -.718E-04 -.357E+02   -.214E-03 0.267E-03 0.380E+02   0.000E+00 0.000E+00 -.230E+01   0.474E-06 -.801E-07 0.111E-02
   -.123E-02 0.165E-03 0.333E+00   0.605E-13 0.421E-13 0.234E-12   -.167E-15 0.000E+00 -.456E+00   0.391E-06 -.554E-07 0.102E-02

 POSITION                                       TOTAL-FORCE (eV/Angst)
      1.28075      3.56302      7.58339         0.001480     -0.001477     -0.000853
      6.10485      3.36447      7.68290         0.000751     -0.000874     -0.000064
      1.59186      8.31805      7.45076        -0.001005     -0.000178      0.001510
      6.09773      8.71699      7.81365        -0.000565     -0.000611     -0.001160
      1.49360      3.57396      4.39455        -0.000474     -0.001427      0.000540
      6.27628      3.48161      4.25908         0.000108      0.000881     -0.000814
      1.57540      8.19706      4.43050        -0.000805      0.000499     -0.000780
      6.21302      8.31968      4.33740         0.000311     -0.000014      0.000122
      1.58550      3.50657      1.44092        -0.123820     -0.032621     -0.130283
      6.34201      3.50657      1.44092        -0.253252      0.024798     -0.305194
      1.58550      8.18200      1.44092        -0.164069     -0.015383     -0.065658
      6.34201      8.18200      1.44092        -0.142708      0.025136     -0.215860
      3.70131      3.31478      5.94381         0.000136     -0.000098     -0.000031
      8.54576      3.37991      5.88249        -0.000864     -0.002092     -0.001462
      4.02630      7.97277      6.07256        -0.001497     -0.000753      0.000180
      8.82063      8.63822      5.94537        -0.000137     -0.000641      0.000468
      3.96376      3.50657      2.88185        -0.571349      0.109704      0.329311
      8.72027      3.50657      2.88185        -0.168505     -0.082887     -0.229056
      3.96376      8.18200      2.88185        -0.424744     -0.128873      0.038046
      8.72027      8.18200      2.88185        -0.318885     -0.151724      0.318429
      3.96376      3.50657      0.00000        -0.917602      0.000902     -0.044509
      8.72027      3.50657      0.00000        -0.920308      0.044402     -0.059563
      3.96376      8.18200      0.00000        -0.882603      0.018571      0.003216
      8.72027      8.18200      0.00000        -0.892704      0.003111      0.038362
      1.05520      1.36065      5.94379        -0.000136      0.000098     -0.000031
      5.72377      1.29552      5.88247         0.000864      0.002092     -0.001462
      0.73021      6.05352      6.07254         0.001497      0.000753      0.000180
      5.44890      5.38807      5.94536         0.000137      0.000641      0.000468
      0.79275      1.16886      2.88185         0.571349     -0.109704      0.329311
      5.54926      1.16886      2.88185         0.168505      0.082887     -0.229056
      0.79275      5.84429      2.88185         0.424744      0.128873      0.038046
      5.54926      5.84429      2.88185         0.318885      0.151724      0.318429
      0.79275      1.16886      0.00000         0.917602     -0.000902     -0.044509
      5.54926      1.16886      0.00000         0.920308     -0.044402     -0.059563
      0.79275      5.84429      0.00000         0.882603     -0.018571      0.003216
      5.54926      5.84429      0.00000         0.892704     -0.003111      0.038362
      3.47575      1.11241      7.58339        -0.001480      0.001477     -0.000853
      8.16467      1.31096      7.68290        -0.000751      0.000874     -0.000064
      3.16464      5.70824      7.45076         0.001005      0.000178      0.001510
      8.17179      5.30930      7.81365         0.000565      0.000611     -0.001160
      3.26290      1.10147      4.39455         0.000474      0.001427      0.000540
      7.99324      1.19382      4.25908        -0.000108     -0.000881     -0.000814
      3.18111      5.82923      4.43050         0.000805     -0.000499     -0.000780
      8.05650      5.70661      4.33740        -0.000311      0.000014      0.000122
      3.17100      1.16886      1.44092         0.123820      0.032621     -0.130283
      7.92751      1.16886      1.44092         0.253252     -0.024798     -0.305194
      3.17100      5.84429      1.44092         0.164069      0.015383     -0.065658
      7.92751      5.84429      1.44092         0.142708     -0.025136     -0.215860
      3.56738      3.50657     15.27806        -0.009641     -0.034669     -0.104215
      8.32389      3.50657     15.27806         0.086651     -0.031690     -0.151079
      3.56738      8.18200     15.27806         0.060203      0.136957     -0.317619
      8.32389      8.18200     15.27806         0.118321      0.105649     -0.283086
      1.18913      1.16886     15.27806         0.009641      0.034669     -0.104215
      5.94564      1.16886     15.27806        -0.086651      0.031690     -0.151079
      1.18913      5.84429     15.27806        -0.060203     -0.136957     -0.317619
      5.94564      5.84429     15.27806        -0.118321     -0.105649     -0.283086
      1.18913      3.50657     16.87954         0.370896      0.001693     -0.035225
      5.94564      3.50657     16.87954         0.346571      0.013940     -0.047903
      1.18913      8.18200     16.87954         0.350697      0.060660      0.019989
      5.94564      8.18200     16.87954         0.337575      0.024119      0.036207
[...]
      3.68702      8.01162      9.07092        -0.000781      0.000880     -0.000392
      8.57872      7.96229      8.83910        -0.000133     -0.001160      0.000283
      0.96934      1.20623      9.17476        -0.000314     -0.000732      0.000927
      5.63425      1.38284      9.39486         0.000500     -0.000726      0.000507
      1.06949      6.01467      9.07092         0.000781     -0.000880     -0.000392
      5.69081      6.06400      8.83910         0.000133      0.001160      0.000283
      1.18913      8.18200     13.67663         0.307037      0.545709      0.320980
      5.94564      8.18200     13.67663         0.197859      0.530280      0.237795
      3.56738      5.84429     13.67663        -0.307037     -0.545709      0.320980
      8.32389      5.84429     13.67663        -0.197859     -0.530280      0.237795
      1.18913      3.50657     13.67663         0.260696     -0.246318      0.286101
      5.94564      3.50657     13.67663         0.170551     -0.109331      0.364781
      3.56738      1.16886     13.67663        -0.260696      0.246318      0.286101
      8.32389      1.16886     13.67663        -0.170551      0.109331      0.364781
      7.13476      7.01315      6.26530        -0.000000      0.000000      0.000585
    total drift:                               -0.001233      0.000165     -0.121869

  FREE ENERGIE OF THE ION-ELECTRON SYSTEM (eV)
  free  energy   TOTEN  =      -746.79590907 eV

  energy  without entropy=     -746.79520864  energy(sigma->0) =     -746.79567559

 d Force = 0.1393682E-04[ 0.724E-05, 0.206E-04]  d Energy = 0.1310393E-04 0.833E-06
 d Force =-0.7714876E-01[-0.772E-01,-0.771E-01]  d Ewald  =-0.7714929E-01 0.532E-06

 stress matrix after NEB project (eV)
     -3.16160      3.90885      0.00000
      3.90885    -31.78181      0.00000
      0.00000      0.00000    -39.56568
  FORCES: max atom, RMS     0.002694    0.001008
  FORCE total and by dimension    0.009926    0.002092
  Stress total and by dimension   51.147636   39.565681
 Steepest descent step on ions:
 trial-energy change:   -0.000013  1 .order   -0.000014   -0.000021   -0.000007
  (g-gl).g = 0.206E-04      g.g   = 0.206E-04  gl.gl    = 0.000E+00
 g(Force)  = 0.206E-04   g(Stress)= 0.000E+00 ortho     = 0.000E+00
 gamma     =   0.00000
 trial     =   1.00000
 opt step  =   1.54040  (harmonic =   1.54040) maximal distance =0.00035830
 next E    =  -746.795912   (d E  =  -0.00002)

 reached required accuracy - stopping structural energy minimisation